solution/p_2_3.txt_600.row.sol
<?xml version = "1.0" encoding="UTF-8" standalone="yes"?>
<CPLEXSolution version="1.2">
 <header
   problemName="ilog.cplex"
   solutionName="incumbent"
   solutionIndex="-1"
   objectiveValue="90"
   solutionTypeValue="3"
   solutionTypeString="primal"
   solutionStatusValue="101"
   solutionStatusString="integer optimal solution"
   solutionMethodString="mip"
   primalFeasible="1"
   dualFeasible="1"
   MIPNodes="0"
   MIPIterations="0"
   writeLevel="1"/>
 <quality
   epInt="1.0000000000000001e-05"
   epRHS="9.9999999999999995e-07"
   maxIntInfeas="0"
   maxPrimalInfeas="0"
   maxX="1"
   maxSlack="21"/>
 <linearConstraints>
  <constraint index="0" slack="15"/>
  <constraint index="1" slack="21"/>
  <constraint index="2" slack="0"/>
  <constraint index="3" slack="0"/>
  <constraint index="4" slack="0"/>
  <constraint index="5" slack="0"/>
  <constraint index="6" slack="0"/>
  <constraint index="7" slack="0"/>
 </linearConstraints>
 <variables>
  <variable name="x_ijk_0_0_0" index="0" value="-0"/>
  <variable name="x_ijk_0_1_0" index="1" value="-0"/>
  <variable name="x_ijk_0_2_0" index="2" value="1"/>
  <variable name="x_ijk_0_3_0" index="3" value="-0"/>
  <variable name="x_ijk_0_4_0" index="4" value="-0"/>
  <variable name="x_ijk_1_0_0" index="5" value="0"/>
  <variable name="x_ijk_1_1_0" index="6" value="1"/>
  <variable name="x_ijk_2_0_0" index="7" value="1"/>
  <variable name="x_ijk_2_1_0" index="8" value="0"/>
  <variable name="x_ijk_2_2_0" index="9" value="0"/>
  <variable name="x_ijk_2_3_0" index="10" value="0"/>
  <variable name="x_ijk_0_0_1" index="11" value="0"/>
  <variable name="x_ijk_0_1_1" index="12" value="0"/>
  <variable name="x_ijk_0_2_1" index="13" value="1"/>
  <variable name="x_ijk_0_3_1" index="14" value="0"/>
  <variable name="x_ijk_0_4_1" index="15" value="0"/>
  <variable name="x_ijk_1_0_1" index="16" value="0"/>
  <variable name="x_ijk_1_1_1" index="17" value="1"/>
  <variable name="x_ijk_2_0_1" index="18" value="1"/>
  <variable name="x_ijk_2_1_1" index="19" value="0"/>
  <variable name="x_ijk_2_2_1" index="20" value="0"/>
  <variable name="x_ijk_2_3_1" index="21" value="0"/>
 </variables>
</CPLEXSolution>
